Maximize

x_0_0 + x_0_1 + x_1_0 + x_1_1 + x_2_0 + x_2_1 + x_3_0 + x_3_1 + x_4_0 + x_4_1


Subject To

a0: 20 x_0_0 + 30 x_1_0 + 25 x_2_0 + 10 x_3_0 + 40 x_4_0 <= 50
a1: 20 x_0_1 + 30 x_1_1 + 25 x_2_1 + 10 x_3_1 + 40 x_4_1 <= 80
b0: x_0_0 + x_0_1 <= 1
b1: x_1_0 + x_1_1 <= 1
b2: x_2_0 + x_2_1 <= 1
b3: x_3_0 + x_3_1 <= 1
b4: x_4_0 + x_4_1 <= 1
c0: x_0_1 + x_2_1 <= 1
c1: x_0_1 + x_3_1 <= 1
c2: x_0_1 + x_4_1 <= 1
c3: x_1_1 + x_2_1 <= 1
c4: x_1_1 + x_4_1 <= 1
c5: x_2_1 + x_0_1 <= 1
c6: x_2_1 + x_1_1 <= 1
c7: x_2_1 + x_4_1 <= 1
c8: x_3_1 + x_0_1 <= 1
c9: x_4_1 + x_0_1 <= 1
c10: x_4_1 + x_1_1 <= 1
c11: x_4_1 + x_2_1 <= 1
c12: x_4_1 + x_3_1 <= 1




 


End
